2316, 0, 0, 80, 1
2317, 0, 1, 84, 3
2318, 0, 2, 35, 0
2319, 0, 3, 46, 2
2320, 1, 0, 39, 1
2321, 1, 1, 64, 0
2322, 1, 2, 56, 3
2323, 1, 3, 66, 2
2324, 2, 0, 35, 3
2325, 2, 1, 66, 2
2326, 2, 2, 62, 0
2327, 2, 3, 52, 1
2328, 3, 0, 99, 0
2329, 3, 1, 51, 3
2330, 3, 2, 38, 2
2331, 3, 3, 37, 1
